c Sudoku solution
p cnf 729 0
115 0
168 0
183 0
238 0
274 0
313 0
321 0
355 0
436 0
454 0
499 0
561 0
596 0
646 0
677 0
723 0
742 0
765 0
819 0
856 0
872 0
893 0
914 0
928 0
932 0
716 0
959 0
995 0
285 0
864 0
533 0
473 0
575 0
445 0
226 0
176 0
366 0
971 0
986 0
888 0
779 0
758 0
841 0
731 0
548 0
669 0
653 0
529 0
584 0
249 0
263 0
144 0
347 0
334 0
139 0
624 0
635 0
825 0
837 0
943 0
967 0
557 0
462 0
427 0
512 0
217 0
122 0
151 0
252 0
291 0
197 0
378 0
392 0
389 0
682 0
481 0
698 0
418 0
611 0
787 0
794 0
